(set-option :produce-models true); benchmark generated from python API
(set-info :status unknown)
(declare-fun l_0_0_5 () Real)
(declare-fun l_0_0_4 () Real)
(declare-fun l_0_0_1 () Real)
(declare-fun _a_0_ () Real)
(declare-fun l_0_0_6 () Real)
(declare-fun l_0_0_2 () Real)
(declare-fun _a_1_ () Real)
(declare-fun l_0_0_3 () Real)
(declare-fun l_0_1_7 () Real)
(declare-fun l_0_1_4 () Real)
(declare-fun l_0_1_1 () Real)
(declare-fun l_0_1_8 () Real)
(declare-fun l_0_1_5 () Real)
(declare-fun l_0_1_2 () Real)
(declare-fun l_0_1_9 () Real)
(declare-fun l_0_1_6 () Real)
(declare-fun l_0_1_3 () Real)
(declare-fun l_0_2_8 () Real)
(declare-fun l_0_2_7 () Real)
(declare-fun l_0_2_4 () Real)
(declare-fun l_0_2_5 () Real)
(declare-fun l_0_2_2 () Real)
(declare-fun l_0_2_1 () Real)
(declare-fun l_0_2_9 () Real)
(declare-fun l_0_2_6 () Real)
(declare-fun l_0_2_3 () Real)
(assert
 (let ((?x38 (- (- _a_0_ (* (* 80.0 l_0_0_1) l_0_0_1)) (* (* 2.0 l_0_0_4) l_0_0_5))))
 (= ?x38 0.0)))
(assert
 (let ((?x82 (* l_0_0_6 l_0_0_6)))
 (let ((?x80 (* l_0_0_5 l_0_0_5)))
 (let ((?x59 (* l_0_0_1 l_0_0_1)))
 (let ((?x83 (- (- (+ (- _a_1_ (* (* 160.0 l_0_0_1) l_0_0_2)) ?x59) ?x80) ?x82)))
 (= ?x83 0.0))))))
(assert
 (= (- 1.0 (* l_0_0_4 l_0_0_4)) 0.0))
(assert
 (let ((?x111 (- (* (* 2.0 l_0_0_1) l_0_0_2) (* (* 80.0 l_0_0_2) l_0_0_2))))
 (= (- ?x111 (* (* 80.0 l_0_0_3) l_0_0_3)) 0.0)))
(assert
 (= (+ (* l_0_0_2 l_0_0_2) (* l_0_0_3 l_0_0_3)) 0.0))
(assert
 (>= l_0_0_1 0.0))
(assert
 (>= l_0_0_3 0.0))
(assert
 (>= l_0_0_4 0.0))
(assert
 (>= l_0_0_6 0.0))
(assert
 (let ((?x142 (* l_0_1_7 l_0_1_7)))
 (let ((?x138 (* l_0_1_4 l_0_1_4)))
 (let ((?x140 (* 82.0 ?x138)))
 (= (- (- (+ (* (* (- 1.0) l_0_1_1) l_0_1_1) ?x140) ?x142) 790.0) 0.0)))))
(assert
 (let ((?x138 (* l_0_1_4 l_0_1_4)))
 (let ((?x169 (* 81.0 ?x138)))
 (let ((?x163 (- (* (* (- _a_0_) l_0_1_1) l_0_1_1) (* (* 2.0 l_0_1_1) l_0_1_2))))
 (let ((?x173 (- (+ (+ ?x163 (* (* 164.0 l_0_1_4) l_0_1_5)) ?x169) (* (* 2.0 l_0_1_7) l_0_1_8))))
 (= (- ?x173 69.0) 0.0))))))
(assert
 (let ((?x225 (* l_0_1_9 l_0_1_9)))
 (let ((?x223 (* l_0_1_8 l_0_1_8)))
 (let ((?x220 (* l_0_1_6 l_0_1_6)))
 (let ((?x221 (* 82.0 ?x220)))
 (let ((?x217 (* l_0_1_5 l_0_1_5)))
 (let ((?x218 (* 82.0 ?x217)))
 (let ((?x138 (* l_0_1_4 l_0_1_4)))
 (let ((?x205 (- (* (* (* (- 2.0) _a_0_) l_0_1_1) l_0_1_2) (* (* _a_1_ l_0_1_1) l_0_1_1))))
 (let ((?x211 (- (- ?x205 (* (* 1.0 l_0_1_2) l_0_1_2)) (* (* 1.0 l_0_1_3) l_0_1_3))))
 (let ((?x222 (+ (+ (- (+ ?x211 (* (* 162.0 l_0_1_4) l_0_1_5)) ?x138) ?x218) ?x221)))
 (= (+ (- (- ?x222 ?x223) ?x225) 1.0) 0.0))))))))))))
(assert
 (let ((?x268 (- (* (- _a_0_) (+ (* l_0_1_2 l_0_1_2) (* l_0_1_3 l_0_1_3))) (* (* (* 2.0 _a_1_) l_0_1_1) l_0_1_2))))
 (let ((?x273 (+ (- ?x268 (* (* 2.0 l_0_1_4) l_0_1_5)) (* 81.0 (* l_0_1_5 l_0_1_5)))))
 (= (+ ?x273 (* 81.0 (* l_0_1_6 l_0_1_6))) 0.0))))
(assert
 (let ((?x220 (* l_0_1_6 l_0_1_6)))
 (let ((?x217 (* l_0_1_5 l_0_1_5)))
 (let ((?x300 (- (* (- _a_1_) (+ (* l_0_1_2 l_0_1_2) (* l_0_1_3 l_0_1_3))) ?x217)))
 (= (- ?x300 ?x220) 0.0)))))
(assert
 (>= l_0_1_1 0.0))
(assert
 (>= l_0_1_3 0.0))
(assert
 (>= l_0_1_4 0.0))
(assert
 (>= l_0_1_6 0.0))
(assert
 (>= l_0_1_7 0.0))
(assert
 (>= l_0_1_9 0.0))
(assert
 (let ((?x327 (+ (+ (* (* (- _a_0_) l_0_2_1) l_0_2_1) _a_0_) (* 1.0 _a_1_))))
 (let ((?x333 (- (- ?x327 (* (* 2.0 l_0_2_1) l_0_2_2)) (* (* 164.0 l_0_2_4) l_0_2_5))))
 (let ((?x339 (- (- ?x333 (* (* 81.0 l_0_2_4) l_0_2_4)) (* (* 2.0 l_0_2_7) l_0_2_8))))
 (= ?x339 0.0)))))
(assert
 (let ((?x381 (* l_0_2_7 l_0_2_7)))
 (let ((?x373 (* (/ 1.0 4.0) _a_1_)))
 (let ((?x371 (* (/ 1.0 2.0) _a_0_)))
 (let ((?x374 (+ ?x371 ?x373)))
 (let ((?x380 (- (- ?x374 (* (* 1.0 l_0_2_1) l_0_2_1)) (* (* 82.0 l_0_2_4) l_0_2_4))))
 (= (+ (- ?x380 ?x381) 1.0) 0.0)))))))
(assert
 (let ((?x427 (* l_0_2_9 l_0_2_9)))
 (let ((?x425 (* l_0_2_8 l_0_2_8)))
 (let ((?x357 (* l_0_2_4 l_0_2_4)))
 (let ((?x407 (* (/ 9997291.0 10000000.0) _a_1_)))
 (let ((?x405 (- (- (* (* (* (- 2.0) _a_0_) l_0_2_1) l_0_2_2) (* (/ 2709.0 10000000.0) _a_0_)) (* (* _a_1_ l_0_2_1) l_0_2_1))))
 (let ((?x414 (- (- (+ ?x405 ?x407) (* (* 1.0 l_0_2_2) l_0_2_2)) (* (* 1.0 l_0_2_3) l_0_2_3))))
 (let ((?x421 (- (+ (- ?x414 (* (* 162.0 l_0_2_4) l_0_2_5)) ?x357) (* (* 82.0 l_0_2_5) l_0_2_5))))
 (= (- (- (- ?x421 (* (* 82.0 l_0_2_6) l_0_2_6)) ?x425) ?x427) 0.0)))))))))
(assert
 (let ((?x486 (* (/ 2709.0 5000000.0) _a_1_)))
 (let ((?x484 (- (* (- _a_0_) (+ (* l_0_2_2 l_0_2_2) (* l_0_2_3 l_0_2_3))) (* (* (* 2.0 _a_1_) l_0_2_1) l_0_2_2))))
 (let ((?x493 (- (+ (- ?x484 ?x486) (* (* 2.0 l_0_2_4) l_0_2_5)) (* (* 81.0 l_0_2_5) l_0_2_5))))
 (= (- ?x493 (* (* 81.0 l_0_2_6) l_0_2_6)) 0.0)))))
(assert
 (let ((?x462 (* l_0_2_6 l_0_2_6)))
 (let ((?x456 (* l_0_2_5 l_0_2_5)))
 (let ((?x531 (* (/ 7338681.0 100000000000000.0) _a_1_)))
 (let ((?x532 (+ (* (- _a_1_) (+ (* l_0_2_2 l_0_2_2) (* l_0_2_3 l_0_2_3))) ?x531)))
 (= (+ (+ ?x532 ?x456) ?x462) 0.0))))))
(assert
 (>= l_0_2_1 0.0))
(assert
 (>= l_0_2_3 0.0))
(assert
 (>= l_0_2_4 0.0))
(assert
 (>= l_0_2_6 0.0))
(assert
 (>= l_0_2_7 0.0))
(assert
 (>= l_0_2_9 0.0))
(check-sat)
(get-model)